min: c;

c = 3.60235883246768 * u1_t7_h4 + 3.27766864644063 * u1_t7_h5 + 3.45853523993201 * u1_t5_h6 + 3.45853523993201 * u1_t7_h6 + 3.60424152515643 * u1_t5_h7 + 3.60424152515643 * u1_t7_h7 + 3.60424152515643 * u1_t9_h7 + 4.88717555368985 * u1_t5_h8 + 4.88717555368985 * u1_t7_h8 + 4.88717555368985 * u1_t9_h8 + 4.88717555368985 * u1_t10_h8 + 5.02990294765473 * u1_t5_h9 + 5.02990294765473 * u1_t7_h9 + 5.02990294765473 * u1_t9_h9 + 5.02990294765473 * u1_t10_h9 + 5.88009999402144 * u1_t5_h10 + 5.88009999402144 * u1_t7_h10 + 5.88009999402144 * u1_t9_h10 + 5.88009999402144 * u1_t10_h10 + 3.74246036431291 * u1_t5_h11 + 3.74246036431291 * u1_t9_h11 + 3.74246036431291 * u1_t10_h11 + 6.17543934674761 * u1_t4_h12 + 6.17543934674761 * u1_t5_h12 + 6.17543934674761 * u1_t8_h12 + 6.17543934674761 * u1_t9_h12 + 6.17543934674761 * u1_t10_h12 + 4.84001282734694 * u1_t4_h13 + 4.84001282734694 * u1_t8_h13 + 4.84001282734694 * u1_t9_h13 + 4.84001282734694 * u1_t10_h13 + 5.48966893798375 * u1_t4_h14 + 5.48966893798375 * u1_t8_h14 + 5.48966893798375 * u1_t9_h14 + 5.48966893798375 * u1_t10_h14 + 5.89805771643936 * u1_t4_h15 + 5.89805771643936 * u1_t8_h15 + 6.3748372064142 * u1_t4_h16 + 6.3748372064142 * u1_t8_h16 + 6.56311737815061 * u1_t4_h17 + 6.56311737815061 * u1_t8_h17 + 6.82191734940292 * u1_t2_h18 + 6.82191734940292 * u1_t4_h18 + 6.82191734940292 * u1_t6_h18 + 6.82191734940292 * u1_t8_h18 + 5.98934189677075 * u1_t2_h19 + 5.98934189677075 * u1_t3_h19 + 5.98934189677075 * u1_t4_h19 + 5.98934189677075 * u1_t6_h19 + 5.22845560362999 * u1_t1_h20 + 5.22845560362999 * u1_t2_h20 + 5.22845560362999 * u1_t3_h20 + 5.22845560362999 * u1_t4_h20 + 5.22845560362999 * u1_t6_h20 + 4.93321541538386 * u1_t1_h21 + 4.93321541538386 * u1_t2_h21 + 4.93321541538386 * u1_t3_h21 + 6.01538625271993 * u1_t1_h22 + 6.01538625271993 * u1_t2_h22 + 5.57847013273712 * u1_t1_h23 + 5.57847013273712 * u1_t2_h23;
0 <= u1_t1_h20 <= 1;
0 <= u1_t1_h21 <= 1;
0 <= u1_t1_h22 <= 1;
0 <= u1_t1_h23 <= 1;
u1_t1_h20 + u1_t1_h21 + u1_t1_h22 + u1_t1_h23 = 1;
0 <= u1_t2_h18 <= 1;
0 <= u1_t2_h19 <= 1;
0 <= u1_t2_h20 <= 1;
0 <= u1_t2_h21 <= 1;
0 <= u1_t2_h22 <= 1;
0 <= u1_t2_h23 <= 1;
u1_t2_h18 + u1_t2_h19 + u1_t2_h20 + u1_t2_h21 + u1_t2_h22 + u1_t2_h23 = 2;
0 <= u1_t3_h19 <= 1;
0 <= u1_t3_h20 <= 1;
0 <= u1_t3_h21 <= 1;
u1_t3_h19 + u1_t3_h20 + u1_t3_h21 = 1;
0 <= u1_t4_h12 <= 1;
0 <= u1_t4_h13 <= 1;
0 <= u1_t4_h14 <= 1;
0 <= u1_t4_h15 <= 1;
0 <= u1_t4_h16 <= 1;
0 <= u1_t4_h17 <= 1;
0 <= u1_t4_h18 <= 1;
0 <= u1_t4_h19 <= 1;
0 <= u1_t4_h20 <= 1;
u1_t4_h12 + u1_t4_h13 + u1_t4_h14 + u1_t4_h15 + u1_t4_h16 + u1_t4_h17 + u1_t4_h18 + u1_t4_h19 + u1_t4_h20 = 3;
0 <= u1_t5_h6 <= 1;
0 <= u1_t5_h7 <= 1;
0 <= u1_t5_h8 <= 1;
0 <= u1_t5_h9 <= 1;
0 <= u1_t5_h10 <= 1;
0 <= u1_t5_h11 <= 1;
0 <= u1_t5_h12 <= 1;
u1_t5_h6 + u1_t5_h7 + u1_t5_h8 + u1_t5_h9 + u1_t5_h10 + u1_t5_h11 + u1_t5_h12 = 3;
0 <= u1_t6_h18 <= 1;
0 <= u1_t6_h19 <= 1;
0 <= u1_t6_h20 <= 1;
u1_t6_h18 + u1_t6_h19 + u1_t6_h20 = 2;
0 <= u1_t7_h4 <= 1;
0 <= u1_t7_h5 <= 1;
0 <= u1_t7_h6 <= 1;
0 <= u1_t7_h7 <= 1;
0 <= u1_t7_h8 <= 1;
0 <= u1_t7_h9 <= 1;
0 <= u1_t7_h10 <= 1;
u1_t7_h4 + u1_t7_h5 + u1_t7_h6 + u1_t7_h7 + u1_t7_h8 + u1_t7_h9 + u1_t7_h10 = 2;
0 <= u1_t8_h12 <= 1;
0 <= u1_t8_h13 <= 1;
0 <= u1_t8_h14 <= 1;
0 <= u1_t8_h15 <= 1;
0 <= u1_t8_h16 <= 1;
0 <= u1_t8_h17 <= 1;
0 <= u1_t8_h18 <= 1;
u1_t8_h12 + u1_t8_h13 + u1_t8_h14 + u1_t8_h15 + u1_t8_h16 + u1_t8_h17 + u1_t8_h18 = 2;
0 <= u1_t9_h7 <= 1;
0 <= u1_t9_h8 <= 1;
0 <= u1_t9_h9 <= 1;
0 <= u1_t9_h10 <= 1;
0 <= u1_t9_h11 <= 1;
0 <= u1_t9_h12 <= 1;
0 <= u1_t9_h13 <= 1;
0 <= u1_t9_h14 <= 1;
u1_t9_h7 + u1_t9_h8 + u1_t9_h9 + u1_t9_h10 + u1_t9_h11 + u1_t9_h12 + u1_t9_h13 + u1_t9_h14 = 3;
0 <= u1_t10_h8 <= 1;
0 <= u1_t10_h9 <= 1;
0 <= u1_t10_h10 <= 1;
0 <= u1_t10_h11 <= 1;
0 <= u1_t10_h12 <= 1;
0 <= u1_t10_h13 <= 1;
0 <= u1_t10_h14 <= 1;
u1_t10_h8 + u1_t10_h9 + u1_t10_h10 + u1_t10_h11 + u1_t10_h12 + u1_t10_h13 + u1_t10_h14 = 3;
